mznc2017_probs/tc-graph-color/k9_39.dzn
a = array2d(1..10, 1..25, [4, 3, 4, 2, 4, 3, 5, 2, 1, 2, 3, 1, 4, 1, 2, 1, 5, 1, 1, 3, 5, 4, 5, 5, 5, 1, 1, 1, 2, 4, 2, 5, 2, 1, 2, 3, 1, 4, 3, 3, 4, 2, 2, 1, 3, 5, 4, 5, 5, 5, 1, 1, 1, 2, 3, 2, 5, 2, 1, 2, 4, 1, 3, 4, 4, 3, 2, 2, 1, 1, 5, 3, 5, 2, 5, 5, 1, 1, 2, 5, 2, 3, 2, 1, 2, 4, 1, 3, 4, 4, 1, 2, 2, 1, 4, 3, 5, 5, 3, 3, 5, 1, 5, 2, 2, 4, 3, 1, 2, 1, 4, 1, 3, 4, 1, 2, 2, 2, 5, 4, 3, 5, 5, 3, 3, 5, 1, 5, 2, 2, 4, 3, 1, 2, 1, 4, 1, 3, 4, 1, 2, 2, 2, 5, 4, 3, 5, 5, 3, 3, 5, 1, 5, 2, 2, 4, 3, 1, 2, 1, 4, 1, 3, 4, 1, 2, 2, 2, 5, 4, 3, 5, 5, 3, 3, 5, 1, 5, 2, 2, 4, 3, 1, 2, 1, 4, 1, 3, 4, 1, 2, 2, 2, 5, 4, 3, 5, 5, 3, 3, 5, 1, 5, 2, 2, 4, 3, 1, 2, 1, 4, 1, 3, 4, 1, 2, 2, 2, 5, 4, 3, 5, 5, 3, 3, 5, 1, 5, 2, 2, 4, 3, 1, 2, 1, 4, 1, 3, 4, 1, 2, 2, 2, 5, 4, 3, 5, 5, 3, 3]);
objective = 491;
s = 5;
----------
a = array2d(1..10, 1..25, [4, 3, 4, 2, 4, 3, 5, 2, 1, 2, 3, 1, 4, 1, 2, 1, 5, 1, 1, 3, 5, 4, 5, 5, 5, 1, 1, 1, 2, 4, 2, 5, 2, 1, 2, 3, 1, 4, 3, 3, 4, 2, 2, 1, 3, 5, 4, 5, 5, 5, 1, 1, 1, 2, 3, 2, 5, 2, 1, 2, 4, 1, 3, 4, 4, 3, 2, 2, 1, 1, 5, 3, 5, 5, 5, 5, 1, 1, 2, 5, 2, 3, 2, 1, 2, 4, 1, 3, 4, 4, 1, 2, 2, 1, 4, 3, 5, 5, 3, 3, 5, 1, 5, 2, 2, 4, 3, 1, 2, 1, 4, 1, 3, 4, 1, 2, 2, 2, 5, 4, 3, 5, 5, 3, 3, 5, 1, 5, 2, 2, 4, 3, 1, 2, 1, 4, 1, 3, 4, 1, 2, 2, 2, 5, 4, 3, 5, 5, 3, 3, 5, 1, 5, 2, 2, 4, 3, 1, 2, 1, 4, 1, 3, 4, 1, 2, 2, 2, 5, 4, 3, 5, 5, 3, 3, 5, 1, 5, 2, 2, 4, 3, 1, 2, 1, 4, 1, 3, 4, 1, 2, 2, 2, 5, 4, 3, 5, 5, 3, 3, 5, 1, 5, 2, 2, 4, 3, 1, 2, 1, 4, 1, 3, 4, 1, 2, 2, 2, 5, 4, 3, 5, 5, 3, 3, 5, 1, 5, 2, 2, 4, 3, 1, 2, 1, 4, 1, 3, 4, 1, 2, 2, 2, 5, 4, 3, 5, 5, 3, 3]);
objective = 490;
s = 5;
----------
a = array2d(1..10, 1..25, [4, 3, 4, 2, 4, 3, 5, 2, 1, 2, 3, 1, 4, 1, 2, 1, 5, 1, 1, 3, 5, 4, 5, 5, 5, 1, 1, 1, 2, 4, 2, 5, 2, 1, 2, 3, 1, 4, 3, 3, 4, 2, 2, 1, 3, 5, 4, 5, 5, 5, 1, 1, 1, 2, 3, 2, 5, 2, 1, 2, 4, 1, 3, 4, 4, 3, 2, 2, 1, 4, 5, 3, 5, 5, 5, 5, 1, 1, 2, 5, 2, 3, 2, 1, 2, 4, 1, 3, 4, 4, 1, 2, 2, 1, 4, 3, 5, 5, 3, 3, 5, 1, 5, 2, 2, 4, 3, 1, 2, 1, 4, 1, 3, 4, 1, 2, 2, 2, 5, 4, 3, 5, 5, 3, 3, 5, 1, 5, 2, 2, 4, 3, 1, 2, 1, 4, 1, 3, 4, 1, 2, 2, 2, 5, 4, 3, 5, 5, 3, 3, 5, 1, 5, 2, 2, 4, 3, 1, 2, 1, 4, 1, 3, 4, 1, 2, 2, 2, 5, 4, 3, 5, 5, 3, 3, 5, 1, 5, 2, 2, 4, 3, 1, 2, 1, 4, 1, 3, 4, 1, 2, 2, 2, 5, 4, 3, 5, 5, 3, 3, 5, 1, 5, 2, 2, 4, 3, 1, 2, 1, 4, 1, 3, 4, 1, 2, 2, 2, 5, 4, 3, 5, 5, 3, 3, 5, 1, 5, 2, 2, 4, 3, 1, 2, 1, 4, 1, 3, 4, 1, 2, 2, 2, 5, 4, 3, 5, 5, 3, 3]);
objective = 489;
s = 5;
----------
a = array2d(1..10, 1..25, [4, 3, 4, 2, 4, 3, 5, 2, 1, 2, 3, 1, 4, 1, 2, 1, 5, 1, 1, 3, 5, 4, 5, 5, 5, 1, 1, 1, 2, 4, 3, 5, 2, 1, 2, 3, 1, 4, 3, 2, 4, 3, 2, 1, 1, 5, 4, 5, 5, 3, 5, 1, 1, 2, 5, 3, 4, 2, 1, 2, 3, 1, 4, 3, 2, 1, 3, 2, 1, 1, 4, 5, 5, 4, 3, 5, 1, 1, 2, 5, 4, 3, 2, 1, 2, 4, 1, 3, 4, 2, 1, 3, 2, 1, 4, 3, 5, 5, 3, 3, 5, 1, 5, 2, 2, 4, 3, 1, 2, 1, 4, 1, 3, 4, 1, 2, 2, 2, 5, 4, 3, 5, 5, 3, 3, 5, 1, 5, 2, 2, 4, 3, 1, 2, 1, 4, 1, 3, 4, 1, 2, 2, 2, 5, 4, 3, 5, 5, 3, 3, 5, 1, 5, 2, 2, 4, 3, 1, 2, 1, 4, 1, 3, 4, 1, 2, 2, 2, 5, 4, 3, 5, 5, 3, 3, 5, 1, 5, 2, 2, 4, 3, 1, 2, 1, 4, 1, 3, 4, 1, 2, 2, 2, 5, 4, 3, 5, 5, 3, 3, 5, 1, 5, 2, 2, 4, 3, 1, 2, 1, 4, 1, 3, 4, 1, 2, 2, 2, 5, 4, 3, 5, 5, 3, 3, 5, 1, 5, 2, 2, 4, 3, 1, 2, 1, 4, 1, 3, 4, 1, 2, 2, 2, 5, 4, 3, 5, 5, 3, 3]);
objective = 488;
s = 5;
----------
a = array2d(1..10, 1..25, [4, 3, 4, 2, 4, 3, 5, 2, 1, 2, 3, 1, 4, 1, 2, 1, 5, 1, 1, 3, 5, 4, 5, 5, 5, 1, 1, 1, 2, 4, 3, 5, 2, 1, 2, 3, 1, 4, 3, 2, 4, 3, 2, 1, 3, 5, 4, 5, 5, 5, 1, 1, 1, 2, 3, 4, 5, 2, 1, 2, 4, 1, 3, 4, 2, 3, 3, 2, 1, 4, 5, 3, 5, 5, 5, 5, 1, 1, 2, 5, 4, 3, 2, 1, 2, 4, 1, 3, 4, 2, 1, 3, 2, 1, 4, 3, 5, 5, 3, 3, 5, 1, 5, 2, 2, 4, 3, 1, 2, 1, 4, 1, 3, 4, 1, 2, 2, 2, 5, 4, 3, 5, 5, 3, 3, 5, 1, 5, 2, 2, 4, 3, 1, 2, 1, 4, 1, 3, 4, 1, 2, 2, 2, 5, 4, 3, 5, 5, 3, 3, 5, 1, 5, 2, 2, 4, 3, 1, 2, 1, 4, 1, 3, 4, 1, 2, 2, 2, 5, 4, 3, 5, 5, 3, 3, 5, 1, 5, 2, 2, 4, 3, 1, 2, 1, 4, 1, 3, 4, 1, 2, 2, 2, 5, 4, 3, 5, 5, 3, 3, 5, 1, 5, 2, 2, 4, 3, 1, 2, 1, 4, 1, 3, 4, 1, 2, 2, 2, 5, 4, 3, 5, 5, 3, 3, 5, 1, 5, 2, 2, 4, 3, 1, 2, 1, 4, 1, 3, 4, 1, 2, 2, 2, 5, 4, 3, 5, 5, 3, 3]);
objective = 487;
s = 5;
----------
a = array2d(1..10, 1..25, [4, 3, 4, 2, 4, 3, 5, 2, 1, 2, 3, 1, 4, 1, 2, 1, 5, 1, 1, 3, 5, 4, 5, 5, 5, 1, 1, 1, 2, 4, 3, 5, 2, 1, 2, 3, 1, 4, 3, 2, 4, 5, 2, 1, 3, 5, 4, 5, 5, 5, 1, 1, 1, 2, 3, 4, 5, 2, 1, 2, 4, 1, 3, 4, 2, 3, 5, 2, 1, 4, 5, 3, 5, 5, 5, 5, 1, 1, 2, 5, 4, 3, 2, 1, 2, 4, 1, 3, 4, 2, 1, 5, 2, 1, 4, 3, 5, 5, 3, 3, 5, 1, 5, 2, 2, 4, 3, 1, 2, 1, 4, 1, 3, 4, 1, 2, 2, 2, 5, 4, 3, 5, 5, 3, 3, 5, 1, 5, 2, 2, 4, 3, 1, 2, 1, 4, 1, 3, 4, 1, 2, 2, 2, 5, 4, 3, 5, 5, 3, 3, 5, 1, 5, 2, 2, 4, 3, 1, 2, 1, 4, 1, 3, 4, 1, 2, 2, 2, 5, 4, 3, 5, 5, 3, 3, 5, 1, 5, 2, 2, 4, 3, 1, 2, 1, 4, 1, 3, 4, 1, 2, 2, 2, 5, 4, 3, 5, 5, 3, 3, 5, 1, 5, 2, 2, 4, 3, 1, 2, 1, 4, 1, 3, 4, 1, 2, 2, 2, 5, 4, 3, 5, 5, 3, 3, 5, 1, 5, 2, 2, 4, 3, 1, 2, 1, 4, 1, 3, 4, 1, 2, 2, 2, 5, 4, 3, 5, 5, 3, 3]);
objective = 486;
s = 5;
----------
a = array2d(1..10, 1..25, [4, 3, 4, 2, 4, 3, 5, 2, 1, 2, 3, 1, 4, 1, 2, 1, 5, 1, 1, 3, 5, 4, 5, 5, 5, 1, 3, 1, 2, 4, 3, 5, 2, 1, 2, 3, 1, 4, 1, 2, 4, 5, 2, 1, 3, 5, 4, 5, 5, 5, 1, 1, 1, 2, 3, 4, 5, 2, 1, 2, 4, 1, 3, 4, 2, 3, 5, 2, 1, 4, 5, 3, 5, 5, 5, 5, 1, 1, 2, 5, 4, 3, 2, 1, 2, 4, 1, 3, 4, 2, 1, 5, 2, 1, 4, 3, 5, 5, 3, 3, 5, 1, 5, 2, 2, 4, 3, 1, 2, 1, 4, 1, 3, 4, 1, 2, 2, 2, 5, 4, 3, 5, 5, 3, 3, 5, 1, 5, 2, 2, 4, 3, 1, 2, 1, 4, 1, 3, 4, 1, 2, 2, 2, 5, 4, 3, 5, 5, 3, 3, 5, 1, 5, 2, 2, 4, 3, 1, 2, 1, 4, 1, 3, 4, 1, 2, 2, 2, 5, 4, 3, 5, 5, 3, 3, 5, 1, 5, 2, 2, 4, 3, 1, 2, 1, 4, 1, 3, 4, 1, 2, 2, 2, 5, 4, 3, 5, 5, 3, 3, 5, 1, 5, 2, 2, 4, 3, 1, 2, 1, 4, 1, 3, 4, 1, 2, 2, 2, 5, 4, 3, 5, 5, 3, 3, 5, 1, 5, 2, 2, 4, 3, 1, 2, 1, 4, 1, 3, 4, 1, 2, 2, 2, 5, 4, 3, 5, 5, 3, 3]);
objective = 485;
s = 5;
----------
a = array2d(1..10, 1..25, [4, 3, 4, 2, 4, 3, 5, 2, 1, 2, 3, 1, 4, 1, 2, 1, 5, 1, 1, 3, 5, 4, 5, 5, 5, 3, 2, 3, 2, 3, 4, 5, 2, 1, 2, 4, 1, 3, 1, 2, 1, 5, 1, 1, 4, 5, 3, 5, 5, 5, 3, 1, 1, 2, 3, 4, 5, 2, 1, 2, 4, 1, 3, 4, 2, 1, 5, 2, 1, 4, 5, 3, 5, 5, 5, 5, 1, 1, 2, 5, 4, 3, 2, 1, 2, 4, 1, 3, 4, 2, 1, 5, 2, 1, 4, 3, 5, 5, 3, 3, 5, 1, 5, 2, 2, 4, 3, 1, 2, 1, 4, 1, 3, 4, 1, 2, 2, 2, 5, 4, 3, 5, 5, 3, 3, 5, 1, 5, 2, 2, 4, 3, 1, 2, 1, 4, 1, 3, 4, 1, 2, 2, 2, 5, 4, 3, 5, 5, 3, 3, 5, 1, 5, 2, 2, 4, 3, 1, 2, 1, 4, 1, 3, 4, 1, 2, 2, 2, 5, 4, 3, 5, 5, 3, 3, 5, 1, 5, 2, 2, 4, 3, 1, 2, 1, 4, 1, 3, 4, 1, 2, 2, 2, 5, 4, 3, 5, 5, 3, 3, 5, 1, 5, 2, 2, 4, 3, 1, 2, 1, 4, 1, 3, 4, 1, 2, 2, 2, 5, 4, 3, 5, 5, 3, 3, 5, 1, 5, 2, 2, 4, 3, 1, 2, 1, 4, 1, 3, 4, 1, 2, 2, 2, 5, 4, 3, 5, 5, 3, 3]);
objective = 484;
s = 5;
----------
a = array2d(1..10, 1..25, [4, 3, 4, 2, 4, 3, 5, 2, 1, 2, 3, 1, 4, 1, 2, 1, 5, 1, 1, 3, 5, 4, 5, 5, 5, 3, 2, 3, 2, 3, 4, 5, 2, 1, 2, 4, 1, 3, 1, 2, 1, 5, 1, 1, 4, 5, 3, 5, 5, 5, 3, 1, 3, 2, 3, 4, 5, 2, 1, 2, 4, 1, 3, 4, 2, 1, 5, 1, 1, 4, 5, 3, 5, 5, 5, 5, 1, 5, 2, 5, 4, 3, 2, 1, 2, 4, 1, 3, 4, 2, 1, 5, 1, 1, 4, 3, 5, 5, 3, 3, 5, 1, 5, 2, 2, 4, 3, 1, 2, 1, 4, 1, 3, 4, 1, 2, 2, 2, 5, 4, 3, 5, 5, 3, 3, 5, 1, 5, 2, 2, 4, 3, 1, 2, 1, 4, 1, 3, 4, 1, 2, 2, 2, 5, 4, 3, 5, 5, 3, 3, 5, 1, 5, 2, 2, 4, 3, 1, 2, 1, 4, 1, 3, 4, 1, 2, 2, 2, 5, 4, 3, 5, 5, 3, 3, 5, 1, 5, 2, 2, 4, 3, 1, 2, 1, 4, 1, 3, 4, 1, 2, 2, 2, 5, 4, 3, 5, 5, 3, 3, 5, 1, 5, 2, 2, 4, 3, 1, 2, 1, 4, 1, 3, 4, 1, 2, 2, 2, 5, 4, 3, 5, 5, 3, 3, 5, 1, 5, 2, 2, 4, 3, 1, 2, 1, 4, 1, 3, 4, 1, 2, 2, 2, 5, 4, 3, 5, 5, 3, 3]);
objective = 483;
s = 5;
----------
a = array2d(1..10, 1..25, [4, 3, 4, 2, 4, 3, 5, 2, 1, 2, 3, 1, 4, 1, 2, 1, 5, 1, 1, 3, 5, 4, 5, 5, 5, 4, 2, 1, 2, 4, 3, 5, 2, 1, 2, 3, 1, 4, 1, 2, 1, 3, 2, 1, 1, 5, 4, 5, 5, 3, 5, 2, 1, 2, 5, 4, 3, 2, 1, 2, 4, 1, 3, 1, 2, 1, 3, 2, 1, 1, 3, 5, 5, 3, 3, 5, 1, 1, 2, 5, 4, 3, 2, 1, 2, 4, 1, 3, 4, 2, 1, 3, 2, 1, 4, 3, 5, 5, 3, 3, 5, 1, 5, 2, 2, 4, 3, 1, 2, 1, 4, 1, 3, 4, 1, 2, 2, 2, 5, 4, 3, 5, 5, 3, 3, 5, 1, 5, 2, 2, 4, 3, 1, 2, 1, 4, 1, 3, 4, 1, 2, 2, 2, 5, 4, 3, 5, 5, 3, 3, 5, 1, 5, 2, 2, 4, 3, 1, 2, 1, 4, 1, 3, 4, 1, 2, 2, 2, 5, 4, 3, 5, 5, 3, 3, 5, 1, 5, 2, 2, 4, 3, 1, 2, 1, 4, 1, 3, 4, 1, 2, 2, 2, 5, 4, 3, 5, 5, 3, 3, 5, 1, 5, 2, 2, 4, 3, 1, 2, 1, 4, 1, 3, 4, 1, 2, 2, 2, 5, 4, 3, 5, 5, 3, 3, 5, 1, 5, 2, 2, 4, 3, 1, 2, 1, 4, 1, 3, 4, 1, 2, 2, 2, 5, 4, 3, 5, 5, 3, 3]);
objective = 482;
s = 5;
----------
a = array2d(1..10, 1..25, [4, 3, 4, 2, 4, 3, 5, 2, 1, 2, 3, 1, 4, 1, 2, 1, 5, 1, 1, 3, 5, 4, 5, 5, 5, 4, 2, 1, 2, 4, 3, 5, 2, 1, 2, 3, 1, 4, 1, 2, 1, 5, 2, 1, 1, 5, 4, 5, 5, 3, 5, 2, 1, 2, 5, 4, 3, 2, 1, 2, 4, 1, 3, 1, 2, 1, 5, 2, 1, 1, 3, 5, 5, 3, 3, 5, 1, 1, 2, 5, 4, 3, 2, 1, 2, 4, 1, 3, 4, 2, 1, 5, 2, 1, 4, 3, 5, 5, 3, 3, 5, 1, 5, 2, 2, 4, 3, 1, 2, 1, 4, 1, 3, 4, 1, 2, 2, 2, 5, 4, 3, 5, 5, 3, 3, 5, 1, 5, 2, 2, 4, 3, 1, 2, 1, 4, 1, 3, 4, 1, 2, 2, 2, 5, 4, 3, 5, 5, 3, 3, 5, 1, 5, 2, 2, 4, 3, 1, 2, 1, 4, 1, 3, 4, 1, 2, 2, 2, 5, 4, 3, 5, 5, 3, 3, 5, 1, 5, 2, 2, 4, 3, 1, 2, 1, 4, 1, 3, 4, 1, 2, 2, 2, 5, 4, 3, 5, 5, 3, 3, 5, 1, 5, 2, 2, 4, 3, 1, 2, 1, 4, 1, 3, 4, 1, 2, 2, 2, 5, 4, 3, 5, 5, 3, 3, 5, 1, 5, 2, 2, 4, 3, 1, 2, 1, 4, 1, 3, 4, 1, 2, 2, 2, 5, 4, 3, 5, 5, 3, 3]);
objective = 481;
s = 5;
----------
==========
